5
17
226 136
265 68
173 59
24 267
173 94
196 147
106 267
76 97
137 83
212 103
33 205
276 22
201 85
39 254
243 214
201 10
55 73
17
266 207
190 75
90 36
240 187
257 121
175 64
52 196
132 205
44 202
27 177
73 99
162 263
225 82
127 230
273 18
215 246
279 7
17
204 107
196 97
97 245
80 158
60 39
247 41
157 26
270 202
24 54
61 41
75 265
211 221
66 111
150 144
80 276
67 156
53 141
17
92 232
7 98
10 217
14 194
162 268
67 132
109 244
168 219
195 144
269 268
240 125
74 9
26 273
131 257
26 157
40 169
92 197
17
277 213
221 245
140 104
156 168
251 16
199 169
125 3
105 80
152 109
155 143
160 173
38 60
30 22
79 3
212 67
116 127
8 262
